Version identifier: 22.1.1.0 | 2022-11-28 | 9160aff4d
CPXPARAM_TimeLimit                               3600
Tried aggregator 1 time.
MIP Presolve eliminated 192 rows and 143 columns.
Reduced MIP has 5408 rows, 2468 columns, and 16124 nonzeros.
Reduced MIP has 2468 binaries, 0 generals, 0 SOSs, and 0 indicators.
Presolve time = 0.01 sec. (12.41 ticks)
Found incumbent of value 3994434.000000 after 0.02 sec. (15.09 ticks)
Probing time = 0.00 sec. (3.49 ticks)
Tried aggregator 1 time.
Detecting symmetries...
Reduced MIP has 5408 rows, 2468 columns, and 16124 nonzeros.
Reduced MIP has 2468 binaries, 0 generals, 0 SOSs, and 0 indicators.
Presolve time = 0.01 sec. (13.72 ticks)
Probing time = 0.01 sec. (3.49 ticks)
Clique table members: 2358.
MIP emphasis: balance optimality and feasibility.
MIP search method: dynamic search.
Parallel mode: deterministic, using up to 8 threads.
Root relaxation solution time = 0.01 sec. (10.39 ticks)

        Nodes                                         Cuts/
   Node  Left     Objective  IInf  Best Integer    Best Bound    ItCnt     Gap

*     0+    0                      3994434.0000        0.0000           100.00%
*     0+    0                      2243929.0000        0.0000           100.00%
*     0+    0                       385353.0000        0.0000           100.00%
*     0+    0                       236815.0000        0.0000           100.00%
      0     0    93774.0000   100   236815.0000    93774.0000      159   60.40%
      0     0   106217.5000   100   236815.0000     Cuts: 159      267   55.15%
*     0+    0                       138591.0000   106217.5000            23.36%
      0     0   118122.0000    86   138591.0000     Cuts: 159      391   14.77%
Detecting symmetries...

Repeating presolve.
Tried aggregator 1 time.
MIP Presolve eliminated 4690 rows and 1897 columns.
MIP Presolve modified 424 coefficients.
Reduced MIP has 718 rows, 571 columns, and 2455 nonzeros.
Reduced MIP has 571 binaries, 0 generals, 0 SOSs, and 0 indicators.
Presolve time = 0.00 sec. (4.62 ticks)
Probing time = 0.00 sec. (0.58 ticks)
Tried aggregator 1 time.
Detecting symmetries...
Reduced MIP has 718 rows, 571 columns, and 2455 nonzeros.
Reduced MIP has 571 binaries, 0 generals, 0 SOSs, and 0 indicators.
Presolve time = 0.00 sec. (2.46 ticks)
Represolve time = 0.01 sec. (12.11 ticks)
Probing time = 0.00 sec. (0.58 ticks)
Clique table members: 587.
MIP emphasis: balance optimality and feasibility.
MIP search method: dynamic search.
Parallel mode: deterministic, using up to 8 threads.
Root relaxation solution time = 0.01 sec. (8.12 ticks)

        Nodes                                         Cuts/
   Node  Left     Objective  IInf  Best Integer    Best Bound    ItCnt     Gap

*     0+    0                       138591.0000   118122.0000            14.77%
      0     0   138448.5000    83   138591.0000   138448.5000      702    0.10%
      0     0        cutoff         138591.0000                    714    0.00%
Elapsed time = 0.22 sec. (163.51 ticks, tree = 0.01 MB, solutions = 5)

Clique cuts applied:  2
Implied bound cuts applied:  236
Zero-half cuts applied:  17
Lift and project cuts applied:  1
Gomory fractional cuts applied:  2

Root node processing (before b&c):
  Real time             =    0.22 sec. (163.65 ticks)
Parallel b&c, 8 threads:
  Real time             =    0.00 sec. (0.00 ticks)
  Sync time (average)   =    0.00 sec.
  Wait time (average)   =    0.00 sec.
                          ------------
Total (root+branch&cut) =    0.22 sec. (163.65 ticks)
Status: Optimal
Obj: 138591

Instalacoes abertas:
Instalação 4 aberta
Instalação 9 aberta
Instalação 20 aberta
Instalação 22 aberta

Atribuições (cliente -> instalação):
Cliente 0 -> Instalação 9
Cliente 1 -> Instalação 4
Cliente 2 -> Instalação 20
Cliente 3 -> Instalação 20
Cliente 4 -> Instalação 4
Cliente 5 -> Instalação 20
Cliente 6 -> Instalação 20
Cliente 7 -> Instalação 20
Cliente 8 -> Instalação 9
Cliente 9 -> Instalação 9
Cliente 10 -> Instalação 9
Cliente 11 -> Instalação 20
Cliente 12 -> Instalação 9
Cliente 13 -> Instalação 9
Cliente 14 -> Instalação 9
Cliente 15 -> Instalação 9
Cliente 16 -> Instalação 4
Cliente 17 -> Instalação 20
Cliente 18 -> Instalação 20
Cliente 19 -> Instalação 4
Cliente 20 -> Instalação 20
Cliente 21 -> Instalação 9
Cliente 22 -> Instalação 22
Cliente 23 -> Instalação 9
Cliente 24 -> Instalação 20
Cliente 25 -> Instalação 9
Cliente 26 -> Instalação 9
Cliente 27 -> Instalação 20
Cliente 28 -> Instalação 4
Cliente 29 -> Instalação 20
Cliente 30 -> Instalação 9
Cliente 31 -> Instalação 20
Cliente 32 -> Instalação 4
Cliente 33 -> Instalação 20
Cliente 34 -> Instalação 9
Cliente 35 -> Instalação 9
Cliente 36 -> Instalação 20
Cliente 37 -> Instalação 20
Cliente 38 -> Instalação 4
Cliente 39 -> Instalação 9
Cliente 40 -> Instalação 4
Cliente 41 -> Instalação 20
Cliente 42 -> Instalação 9
Cliente 43 -> Instalação 9
Cliente 44 -> Instalação 9
Cliente 45 -> Instalação 4
Cliente 46 -> Instalação 4
Cliente 47 -> Instalação 9
Cliente 48 -> Instalação 20
Cliente 49 -> Instalação 9
